Route #1: 41 30 39
Route #2: 27 44 95
Route #3: 37 29 61
Route #4: 94 98 14
Route #5: 76 10 78
Route #6: 8 31 80
Route #7: 19 20 34 24 17
Route #8: 2 40 77
Route #9: 62 84 88
Route #10: 7 93 82 74
Route #11: 45 5 18 65 70
Route #12: 87 26 28
Route #13: 4 53 54
Route #14: 35 21 36 57
Route #15: 25 69 90 13 22
Route #16: 97 49 81 43
Route #17: 83 1 72 12 68 38
Route #18: 3 96 58
Route #19: 9 56 64
Route #20: 52 75 51 11 46 100
Route #21: 66 73 16
Route #22: 23 33 32 60
Route #23: 59 55 15
Route #24: 91 89 71 50
Route #25: 63 86 99 79 92 42
Route #26: 6 48 85 47 67
Cost 24931
